ciphers.rail_fence_cipher/6_sat.smt2
(set-logic ALL)
(declare-const input_string_VAR String)
(declare-const key_VAR Int)
(assert (< 0 key_VAR))
(assert (< 1 key_VAR))
(assert (< 2 key_VAR))
(check-sat)
(get-value (input_string_VAR))
(get-value (key_VAR))
